g3 0 1 0	# problem cresc100
 6 200 1 0 0	# vars, constraints, objectives, ranges, eqns
 200 1	# nonlinear constraints, objectives
 0 0	# network constraints: nonlinear, linear
 6 3 3	# nonlinear vars in constraints, objectives, both
 0 0 0 1	# linear network variables; functions; arith, flags
 0 0 0 0 0	# discrete variables: binary, integer, nonlinear (b,c,o)
 1100 3	# nonzeros in Jacobian, gradients
 0 0	# max name lengths: constraints, variables
 0 0 0 0 0	# common exprs: b,c,o,c1,o1
b
2 1e-08
2 1
2 0.39
3
3
0 0 6.2831852
x6
0 1
1 2
2 0.75
3 -40
4 5
5 1.5
r
1 0
1 0
1 0
1 0
1 0
1 0
1 0
1 0
1 0
1 0
1 0
1 0
1 0
1 0
1 0
1 0
1 0
1 0
1 0
1 0
1 0
1 0
1 0
1 0
1 0
1 0
1 0
1 0
1 0
1 0
1 0
1 0
1 0
1 0
1 0
1 0
1 0
1 0
1 0
1 0
1 0
1 0
1 0
1 0
1 0
1 0
1 0
1 0
1 0
1 0
1 0
1 0
1 0
1 0
1 0
1 0
1 0
1 0
1 0
1 0
1 0
1 0
1 0
1 0
1 0
1 0
1 0
1 0
1 0
1 0
1 0
1 0
1 0
1 0
1 0
1 0
1 0
1 0
1 0
1 0
1 0
1 0
1 0
1 0
1 0
1 0
1 0
1 0
1 0
1 0
1 0
1 0
1 0
1 0
1 0
1 0
1 0
1 0
1 0
1 0
2 0
2 0
2 0
2 0
2 0
2 0
2 0
2 0
2 0
2 0
2 0
2 0
2 0
2 0
2 0
2 0
2 0
2 0
2 0
2 0
2 0
2 0
2 0
2 0
2 0
2 0
2 0
2 0
2 0
2 0
2 0
2 0
2 0
2 0
2 0
2 0
2 0
2 0
2 0
2 0
2 0
2 0
2 0
2 0
2 0
2 0
2 0
2 0
2 0
2 0
2 0
2 0
2 0
2 0
2 0
2 0
2 0
2 0
2 0
2 0
2 0
2 0
2 0
2 0
2 0
2 0
2 0
2 0
2 0
2 0
2 0
2 0
2 0
2 0
2 0
2 0
2 0
2 0
2 0
2 0
2 0
2 0
2 0
2 0
2 0
2 0
2 0
2 0
2 0
2 0
2 0
2 0
2 0
2 0
2 0
2 0
2 0
2 0
2 0
2 0
C0
o54
3
o5
o0
n-0.544
o0
v3
o2
o2
v1
v0
o46
v5
n2
o5
o0
n-0.492
o0
v4
o2
o2
v1
v0
o41
v5
n2
o16
o5
o0
v0
v2
n2
C1
o54
3
o5
o0
n-0.714
o0
v3
o2
o2
v1
v0
o46
v5
n2
o5
o0
n-0.505
o0
v4
o2
o2
v1
v0
o41
v5
n2
o16
o5
o0
v0
v2
n2
C2
o54
3
o5
o0
n-0.594
o0
v3
o2
o2
v1
v0
o46
v5
n2
o5
o0
n-0.094
o0
v4
o2
o2
v1
v0
o41
v5
n2
o16
o5
o0
v0
v2
n2
C3
o54
3
o5
o0
n-0.474
o0
v3
o2
o2
v1
v0
o46
v5
n2
o5
o0
n-0.398
o0
v4
o2
o2
v1
v0
o41
v5
n2
o16
o5
o0
v0
v2
n2
C4
o54
3
o5
o0
n-0.47
o0
v3
o2
o2
v1
v0
o46
v5
n2
o5
o0
n-0.804
o0
v4
o2
o2
v1
v0
o41
v5
n2
o16
o5
o0
v0
v2
n2
C5
o54
3
o5
o0
n-0.241
o0
v3
o2
o2
v1
v0
o46
v5
n2
o5
o0
n-0.955
o0
v4
o2
o2
v1
v0
o41
v5
n2
o16
o5
o0
v0
v2
n2
C6
o54
3
o5
o0
n-0.503
o0
v3
o2
o2
v1
v0
o46
v5
n2
o5
o0
n-0.097
o0
v4
o2
o2
v1
v0
o41
v5
n2
o16
o5
o0
v0
v2
n2
C7
o54
3
o5
o0
n-0.854
o0
v3
o2
o2
v1
v0
o46
v5
n2
o5
o0
n-0.359
o0
v4
o2
o2
v1
v0
o41
v5
n2
o16
o5
o0
v0
v2
n2
C8
o54
3
o5
o0
n-0.438
o0
v3
o2
o2
v1
v0
o46
v5
n2
o5
o0
n-0.477
o0
v4
o2
o2
v1
v0
o41
v5
n2
o16
o5
o0
v0
v2
n2
C9
o54
3
o5
o0
n-0.294
o0
v3
o2
o2
v1
v0
o46
v5
n2
o5
o0
n-0.887
o0
v4
o2
o2
v1
v0
o41
v5
n2
o16
o5
o0
v0
v2
n2
C10
o54
3
o5
o0
n-0.479
o0
v3
o2
o2
v1
v0
o46
v5
n2
o5
o0
n-0.372
o0
v4
o2
o2
v1
v0
o41
v5
n2
o16
o5
o0
v0
v2
n2
C11
o54
3
o5
o0
n-0.413
o0
v3
o2
o2
v1
v0
o46
v5
n2
o5
o0
n-0.911
o0
v4
o2
o2
v1
v0
o41
v5
n2
o16
o5
o0
v0
v2
n2
C12
o54
3
o5
o0
n-0.722
o0
v3
o2
o2
v1
v0
o46
v5
n2
o5
o0
n-0.082
o0
v4
o2
o2
v1
v0
o41
v5
n2
o16
o5
o0
v0
v2
n2
C13
o54
3
o5
o0
n-0.358
o0
v3
o2
o2
v1
v0
o46
v5
n2
o5
o0
n-0.788
o0
v4
o2
o2
v1
v0
o41
v5
n2
o16
o5
o0
v0
v2
n2
C14
o54
3
o5
o0
n-0.836
o0
v3
o2
o2
v1
v0
o46
v5
n2
o5
o0
n-0.225
o0
v4
o2
o2
v1
v0
o41
v5
n2
o16
o5
o0
v0
v2
n2
C15
o54
3
o5
o0
n-0.648
o0
v3
o2
o2
v1
v0
o46
v5
n2
o5
o0
n-0.424
o0
v4
o2
o2
v1
v0
o41
v5
n2
o16
o5
o0
v0
v2
n2
C16
o54
3
o5
o0
n-0.267
o0
v3
o2
o2
v1
v0
o46
v5
n2
o5
o0
n-0.932
o0
v4
o2
o2
v1
v0
o41
v5
n2
o16
o5
o0
v0
v2
n2
C17
o54
3
o5
o0
n-0.362
o0
v3
o2
o2
v1
v0
o46
v5
n2
o5
o0
n-0.697
o0
v4
o2
o2
v1
v0
o41
v5
n2
o16
o5
o0
v0
v2
n2
C18
o54
3
o5
o0
n-0.232
o0
v3
o2
o2
v1
v0
o46
v5
n2
o5
o0
n-0.969
o0
v4
o2
o2
v1
v0
o41
v5
n2
o16
o5
o0
v0
v2
n2
C19
o54
3
o5
o0
n-0.667
o0
v3
o2
o2
v1
v0
o46
v5
n2
o5
o0
n-0.527
o0
v4
o2
o2
v1
v0
o41
v5
n2
o16
o5
o0
v0
v2
n2
C20
o54
3
o5
o0
n-0.476
o0
v3
o2
o2
v1
v0
o46
v5
n2
o5
o0
n-0.735
o0
v4
o2
o2
v1
v0
o41
v5
n2
o16
o5
o0
v0
v2
n2
C21
o54
3
o5
o0
n-0.868
o0
v3
o2
o2
v1
v0
o46
v5
n2
o5
o0
n-0.141
o0
v4
o2
o2
v1
v0
o41
v5
n2
o16
o5
o0
v0
v2
n2
C22
o54
3
o5
o0
n-0.603
o0
v3
o2
o2
v1
v0
o46
v5
n2
o5
o0
n-0.55
o0
v4
o2
o2
v1
v0
o41
v5
n2
o16
o5
o0
v0
v2
n2
C23
o54
3
o5
o0
n-0.788
o0
v3
o2
o2
v1
v0
o46
v5
n2
o5
o0
n-0.399
o0
v4
o2
o2
v1
v0
o41
v5
n2
o16
o5
o0
v0
v2
n2
C24
o54
3
o5
o0
n-0.745
o0
v3
o2
o2
v1
v0
o46
v5
n2
o5
o0
n-0.365
o0
v4
o2
o2
v1
v0
o41
v5
n2
o16
o5
o0
v0
v2
n2
C25
o54
3
o5
o0
n-0.627
o0
v3
o2
o2
v1
v0
o46
v5
n2
o5
o0
n-0.762
o0
v4
o2
o2
v1
v0
o41
v5
n2
o16
o5
o0
v0
v2
n2
C26
o54
3
o5
o0
n-0.394
o0
v3
o2
o2
v1
v0
o46
v5
n2
o5
o0
n-0.779
o0
v4
o2
o2
v1
v0
o41
v5
n2
o16
o5
o0
v0
v2
n2
C27
o54
3
o5
o0
n-0.22
o0
v3
o2
o2
v1
v0
o46
v5
n2
o5
o0
n-0.869
o0
v4
o2
o2
v1
v0
o41
v5
n2
o16
o5
o0
v0
v2
n2
C28
o54
3
o5
o0
n-0.548
o0
v3
o2
o2
v1
v0
o46
v5
n2
o5
o0
n-0.625
o0
v4
o2
o2
v1
v0
o41
v5
n2
o16
o5
o0
v0
v2
n2
C29
o54
3
o5
o0
n-0.446
o0
v3
o2
o2
v1
v0
o46
v5
n2
o5
o0
n-0.778
o0
v4
o2
o2
v1
v0
o41
v5
n2
o16
o5
o0
v0
v2
n2
C30
o54
3
o5
o0
n-0.463
o0
v3
o2
o2
v1
v0
o46
v5
n2
o5
o0
n-0.762
o0
v4
o2
o2
v1
v0
o41
v5
n2
o16
o5
o0
v0
v2
n2
C31
o54
3
o5
o0
n-0.541
o0
v3
o2
o2
v1
v0
o46
v5
n2
o5
o0
n-0.068
o0
v4
o2
o2
v1
v0
o41
v5
n2
o16
o5
o0
v0
v2
n2
C32
o54
3
o5
o0
n-0.631
o0
v3
o2
o2
v1
v0
o46
v5
n2
o5
o0
n-0.67
o0
v4
o2
o2
v1
v0
o41
v5
n2
o16
o5
o0
v0
v2
n2
C33
o54
3
o5
o0
n-0.735
o0
v3
o2
o2
v1
v0
o46
v5
n2
o5
o0
n-0.151
o0
v4
o2
o2
v1
v0
o41
v5
n2
o16
o5
o0
v0
v2
n2
C34
o54
3
o5
o0
n-0.674
o0
v3
o2
o2
v1
v0
o46
v5
n2
o5
o0
n-0.49
o0
v4
o2
o2
v1
v0
o41
v5
n2
o16
o5
o0
v0
v2
n2
C35
o54
3
o5
o0
n-0.62
o0
v3
o2
o2
v1
v0
o46
v5
n2
o5
o0
n-0.565
o0
v4
o2
o2
v1
v0
o41
v5
n2
o16
o5
o0
v0
v2
n2
C36
o54
3
o5
o0
n-0.257
o0
v3
o2
o2
v1
v0
o46
v5
n2
o5
o0
n-0.862
o0
v4
o2
o2
v1
v0
o41
v5
n2
o16
o5
o0
v0
v2
n2
C37
o54
3
o5
o0
n-0.659
o0
v3
o2
o2
v1
v0
o46
v5
n2
o5
o0
n-0.01
o0
v4
o2
o2
v1
v0
o41
v5
n2
o16
o5
o0
v0
v2
n2
C38
o54
3
o5
o0
n-0.475
o0
v3
o2
o2
v1
v0
o46
v5
n2
o5
o0
n-0.585
o0
v4
o2
o2
v1
v0
o41
v5
n2
o16
o5
o0
v0
v2
n2
C39
o54
3
o5
o0
n-0.708
o0
v3
o2
o2
v1
v0
o46
v5
n2
o5
o0
n-0.475
o0
v4
o2
o2
v1
v0
o41
v5
n2
o16
o5
o0
v0
v2
n2
C40
o54
3
o5
o0
n-0.545
o0
v3
o2
o2
v1
v0
o46
v5
n2
o5
o0
n-0.371
o0
v4
o2
o2
v1
v0
o41
v5
n2
o16
o5
o0
v0
v2
n2
C41
o54
3
o5
o0
n-0.586
o0
v3
o2
o2
v1
v0
o46
v5
n2
o5
o0
n-0.085
o0
v4
o2
o2
v1
v0
o41
v5
n2
o16
o5
o0
v0
v2
n2
C42
o54
3
o5
o0
n-0.796
o0
v3
o2
o2
v1
v0
o46
v5
n2
o5
o0
n-0.309
o0
v4
o2
o2
v1
v0
o41
v5
n2
o16
o5
o0
v0
v2
n2
C43
o54
3
o5
o0
n-0.525
o0
v3
o2
o2
v1
v0
o46
v5
n2
o5
o0
n-0.573
o0
v4
o2
o2
v1
v0
o41
v5
n2
o16
o5
o0
v0
v2
n2
C44
o54
3
o5
o0
n-0.498
o0
v3
o2
o2
v1
v0
o46
v5
n2
o5
o0
n-0.53
o0
v4
o2
o2
v1
v0
o41
v5
n2
o16
o5
o0
v0
v2
n2
C45
o54
3
o5
o0
n-0.79
o0
v3
o2
o2
v1
v0
o46
v5
n2
o5
o0
n-0.217
o0
v4
o2
o2
v1
v0
o41
v5
n2
o16
o5
o0
v0
v2
n2
C46
o54
3
o5
o0
n-0.632
o0
v3
o2
o2
v1
v0
o46
v5
n2
o5
o0
n-0.169
o0
v4
o2
o2
v1
v0
o41
v5
n2
o16
o5
o0
v0
v2
n2
C47
o54
3
o5
o0
n-0.699
o0
v3
o2
o2
v1
v0
o46
v5
n2
o5
o0
n-0.024
o0
v4
o2
o2
v1
v0
o41
v5
n2
o16
o5
o0
v0
v2
n2
C48
o54
3
o5
o0
n-0.758
o0
v3
o2
o2
v1
v0
o46
v5
n2
o5
o0
n-0.436
o0
v4
o2
o2
v1
v0
o41
v5
n2
o16
o5
o0
v0
v2
n2
C49
o54
3
o5
o0
n-0.656
o0
v3
o2
o2
v1
v0
o46
v5
n2
o5
o0
n-0.662
o0
v4
o2
o2
v1
v0
o41
v5
n2
o16
o5
o0
v0
v2
n2
C50
o54
3
o5
o0
n-0.652
o0
v3
o2
o2
v1
v0
o46
v5
n2
o5
o0
n-0.251
o0
v4
o2
o2
v1
v0
o41
v5
n2
o16
o5
o0
v0
v2
n2
C51
o54
3
o5
o0
n-0.801
o0
v3
o2
o2
v1
v0
o46
v5
n2
o5
o0
n-0.511
o0
v4
o2
o2
v1
v0
o41
v5
n2
o16
o5
o0
v0
v2
n2
C52
o54
3
o5
o0
n-0.73
o0
v3
o2
o2
v1
v0
o46
v5
n2
o5
o0
n-0.611
o0
v4
o2
o2
v1
v0
o41
v5
n2
o16
o5
o0
v0
v2
n2
C53
o54
3
o5
o0
n-0.689
o0
v3
o2
o2
v1
v0
o46
v5
n2
o5
o0
n-0.277
o0
v4
o2
o2
v1
v0
o41
v5
n2
o16
o5
o0
v0
v2
n2
C54
o54
3
o5
o0
n-0.527
o0
v3
o2
o2
v1
v0
o46
v5
n2
o5
o0
n-0.612
o0
v4
o2
o2
v1
v0
o41
v5
n2
o16
o5
o0
v0
v2
n2
C55
o54
3
o5
o0
n-0.696
o0
v3
o2
o2
v1
v0
o46
v5
n2
o5
o0
n-0.074
o0
v4
o2
o2
v1
v0
o41
v5
n2
o16
o5
o0
v0
v2
n2
C56
o54
3
o5
o0
n-0.911
o0
v3
o2
o2
v1
v0
o46
v5
n2
o5
o0
n-0.052
o0
v4
o2
o2
v1
v0
o41
v5
n2
o16
o5
o0
v0
v2
n2
C57
o54
3
o5
o0
n-0.805
o0
v3
o2
o2
v1
v0
o46
v5
n2
o5
o0
n-0.075
o0
v4
o2
o2
v1
v0
o41
v5
n2
o16
o5
o0
v0
v2
n2
C58
o54
3
o5
o0
n-0.764
o0
v3
o2
o2
v1
v0
o46
v5
n2
o5
o0
n-0.067
o0
v4
o2
o2
v1
v0
o41
v5
n2
o16
o5
o0
v0
v2
n2
C59
o54
3
o5
o0
n-0.331
o0
v3
o2
o2
v1
v0
o46
v5
n2
o5
o0
n-0.759
o0
v4
o2
o2
v1
v0
o41
v5
n2
o16
o5
o0
v0
v2
n2
C60
o54
3
o5
o0
n-0.078
o0
v3
o2
o2
v1
v0
o46
v5
n2
o5
o0
n-0.983
o0
v4
o2
o2
v1
v0
o41
v5
n2
o16
o5
o0
v0
v2
n2
C61
o54
3
o5
o0
n-0.656
o0
v3
o2
o2
v1
v0
o46
v5
n2
o5
o0
n-0.34
o0
v4
o2
o2
v1
v0
o41
v5
n2
o16
o5
o0
v0
v2
n2
C62
o54
3
o5
o0
n-0.48
o0
v3
o2
o2
v1
v0
o46
v5
n2
o5
o0
n-0.232
o0
v4
o2
o2
v1
v0
o41
v5
n2
o16
o5
o0
v0
v2
n2
C63
o54
3
o5
o0
n-0.503
o0
v3
o2
o2
v1
v0
o46
v5
n2
o5
o0
n-0.14
o0
v4
o2
o2
v1
v0
o41
v5
n2
o16
o5
o0
v0
v2
n2
C64
o54
3
o5
o0
n-0.412
o0
v3
o2
o2
v1
v0
o46
v5
n2
o5
o0
n-0.683
o0
v4
o2
o2
v1
v0
o41
v5
n2
o16
o5
o0
v0
v2
n2
C65
o54
3
o5
o0
n-0.338
o0
v3
o2
o2
v1
v0
o46
v5
n2
o5
o0
n-0.624
o0
v4
o2
o2
v1
v0
o41
v5
n2
o16
o5
o0
v0
v2
n2
C66
o54
3
o5
o0
n-0.92
o0
v3
o2
o2
v1
v0
o46
v5
n2
o5
o0
n-0.139
o0
v4
o2
o2
v1
v0
o41
v5
n2
o16
o5
o0
v0
v2
n2
C67
o54
3
o5
o0
n-0.548
o0
v3
o2
o2
v1
v0
o46
v5
n2
o5
o0
n-0.474
o0
v4
o2
o2
v1
v0
o41
v5
n2
o16
o5
o0
v0
v2
n2
C68
o54
3
o5
o0
n-0.826
o0
v3
o2
o2
v1
v0
o46
v5
n2
o5
o0
n-0.443
o0
v4
o2
o2
v1
v0
o41
v5
n2
o16
o5
o0
v0
v2
n2
C69
o54
3
o5
o0
n-0.071
o0
v3
o2
o2
v1
v0
o46
v5
n2
o5
o0
n-0.969
o0
v4
o2
o2
v1
v0
o41
v5
n2
o16
o5
o0
v0
v2
n2
C70
o54
3
o5
o0
n-0.635
o0
v3
o2
o2
v1
v0
o46
v5
n2
o5
o0
n-0.728
o0
v4
o2
o2
v1
v0
o41
v5
n2
o16
o5
o0
v0
v2
n2
C71
o54
3
o5
o0
n-0.591
o0
v3
o2
o2
v1
v0
o46
v5
n2
o5
o0
n-0.57
o0
v4
o2
o2
v1
v0
o41
v5
n2
o16
o5
o0
v0
v2
n2
C72
o54
3
o5
o0
n-0.489
o0
v3
o2
o2
v1
v0
o46
v5
n2
o5
o0
n-0.427
o0
v4
o2
o2
v1
v0
o41
v5
n2
o16
o5
o0
v0
v2
n2
C73
o54
3
o5
o0
n-0.565
o0
v3
o2
o2
v1
v0
o46
v5
n2
o5
o0
n-0.105
o0
v4
o2
o2
v1
v0
o41
v5
n2
o16
o5
o0
v0
v2
n2
C74
o54
3
o5
o0
n-0.791
o0
v3
o2
o2
v1
v0
o46
v5
n2
o5
o0
n-0.554
o0
v4
o2
o2
v1
v0
o41
v5
n2
o16
o5
o0
v0
v2
n2
C75
o54
3
o5
o0
n-0.725
o0
v3
o2
o2
v1
v0
o46
v5
n2
o5
o0
n-0.174
o0
v4
o2
o2
v1
v0
o41
v5
n2
o16
o5
o0
v0
v2
n2
C76
o54
3
o5
o0
n-0.091
o0
v3
o2
o2
v1
v0
o46
v5
n2
o5
o0
n-0.951
o0
v4
o2
o2
v1
v0
o41
v5
n2
o16
o5
o0
v0
v2
n2
C77
o54
3
o5
o0
n-0.401
o0
v3
o2
o2
v1
v0
o46
v5
n2
o5
o0
n-0.79
o0
v4
o2
o2
v1
v0
o41
v5
n2
o16
o5
o0
v0
v2
n2
C78
o54
3
o5
o0
n-0.226
o0
v3
o2
o2
v1
v0
o46
v5
n2
o5
o0
n-0.968
o0
v4
o2
o2
v1
v0
o41
v5
n2
o16
o5
o0
v0
v2
n2
C79
o54
3
o5
o0
n-0.518
o0
v3
o2
o2
v1
v0
o46
v5
n2
o5
o0
n-0.663
o0
v4
o2
o2
v1
v0
o41
v5
n2
o16
o5
o0
v0
v2
n2
C80
o54
3
o5
o0
n-0.651
o0
v3
o2
o2
v1
v0
o46
v5
n2
o5
o0
n-0.166
o0
v4
o2
o2
v1
v0
o41
v5
n2
o16
o5
o0
v0
v2
n2
C81
o54
3
o5
o0
n-0.738
o0
v3
o2
o2
v1
v0
o46
v5
n2
o5
o0
n-0.146
o0
v4
o2
o2
v1
v0
o41
v5
n2
o16
o5
o0
v0
v2
n2
C82
o54
3
o5
o0
n-0.509
o0
v3
o2
o2
v1
v0
o46
v5
n2
o5
o0
n-0.28
o0
v4
o2
o2
v1
v0
o41
v5
n2
o16
o5
o0
v0
v2
n2
C83
o54
3
o5
o0
n-0.833
o0
v3
o2
o2
v1
v0
o46
v5
n2
o5
o0
n-0.176
o0
v4
o2
o2
v1
v0
o41
v5
n2
o16
o5
o0
v0
v2
n2
C84
o54
3
o5
o0
n-0.669
o0
v3
o2
o2
v1
v0
o46
v5
n2
o5
o0
n-0.044
o0
v4
o2
o2
v1
v0
o41
v5
n2
o16
o5
o0
v0
v2
n2
C85
o54
3
o5
o0
n-0.121
o0
v3
o2
o2
v1
v0
o46
v5
n2
o5
o0
n-0.921
o0
v4
o2
o2
v1
v0
o41
v5
n2
o16
o5
o0
v0
v2
n2
C86
o54
3
o5
o0
n-0.809
o0
v3
o2
o2
v1
v0
o46
v5
n2
o5
o0
n-0.458
o0
v4
o2
o2
v1
v0
o41
v5
n2
o16
o5
o0
v0
v2
n2
C87
o54
3
o5
o0
n-0.477
o0
v3
o2
o2
v1
v0
o46
v5
n2
o5
o0
n-0.436
o0
v4
o2
o2
v1
v0
o41
v5
n2
o16
o5
o0
v0
v2
n2
C88
o54
3
o5
o0
n-0.267
o0
v3
o2
o2
v1
v0
o46
v5
n2
o5
o0
n-0.84
o0
v4
o2
o2
v1
v0
o41
v5
n2
o16
o5
o0
v0
v2
n2
C89
o54
3
o5
o0
n-0.412
o0
v3
o2
o2
v1
v0
o46
v5
n2
o5
o0
n-0.63
o0
v4
o2
o2
v1
v0
o41
v5
n2
o16
o5
o0
v0
v2
n2
C90
o54
3
o5
o0
n-0.663
o0
v3
o2
o2
v1
v0
o46
v5
n2
o5
o0
n-0.648
o0
v4
o2
o2
v1
v0
o41
v5
n2
o16
o5
o0
v0
v2
n2
C91
o54
3
o5
o0
n-0.83
o0
v3
o2
o2
v1
v0
o46
v5
n2
o5
o0
n-0.086
o0
v4
o2
o2
v1
v0
o41
v5
n2
o16
o5
o0
v0
v2
n2
C92
o54
3
o5
o0
n-0.324
o0
v3
o2
o2
v1
v0
o46
v5
n2
o5
o0
n-0.862
o0
v4
o2
o2
v1
v0
o41
v5
n2
o16
o5
o0
v0
v2
n2
C93
o54
3
o5
o0
n-0.225
o0
v3
o2
o2
v1
v0
o46
v5
n2
o5
o0
n-0.853
o0
v4
o2
o2
v1
v0
o41
v5
n2
o16
o5
o0
v0
v2
n2
C94
o54
3
o5
o0
n-0.87
o0
v3
o2
o2
v1
v0
o46
v5
n2
o5
o0
n-0.331
o0
v4
o2
o2
v1
v0
o41
v5
n2
o16
o5
o0
v0
v2
n2
C95
o54
3
o5
o0
n-0.343
o0
v3
o2
o2
v1
v0
o46
v5
n2
o5
o0
n-0.629
o0
v4
o2
o2
v1
v0
o41
v5
n2
o16
o5
o0
v0
v2
n2
C96
o54
3
o5
o0
n-0.849
o0
v3
o2
o2
v1
v0
o46
v5
n2
o5
o0
n-0.521
o0
v4
o2
o2
v1
v0
o41
v5
n2
o16
o5
o0
v0
v2
n2
C97
o54
3
o5
o0
n-0.655
o0
v3
o2
o2
v1
v0
o46
v5
n2
o5
o0
n-0.714
o0
v4
o2
o2
v1
v0
o41
v5
n2
o16
o5
o0
v0
v2
n2
C98
o54
3
o5
o0
n-0.558
o0
v3
o2
o2
v1
v0
o46
v5
n2
o5
o0
n-0.005
o0
v4
o2
o2
v1
v0
o41
v5
n2
o16
o5
o0
v0
v2
n2
C99
o54
3
o5
o0
n-0.83
o0
v3
o2
o2
v1
v0
o46
v5
n2
o5
o0
n-0.526
o0
v4
o2
o2
v1
v0
o41
v5
n2
o16
o5
o0
v0
v2
n2
C100
o54
3
o5
o0
n-0.544
v3
n2
o5
o0
n-0.492
v4
n2
o16
o5
o0
o2
v1
v0
v2
n2
C101
o54
3
o5
o0
n-0.714
v3
n2
o5
o0
n-0.505
v4
n2
o16
o5
o0
o2
v1
v0
v2
n2
C102
o54
3
o5
o0
n-0.594
v3
n2
o5
o0
n-0.094
v4
n2
o16
o5
o0
o2
v1
v0
v2
n2
C103
o54
3
o5
o0
n-0.474
v3
n2
o5
o0
n-0.398
v4
n2
o16
o5
o0
o2
v1
v0
v2
n2
C104
o54
3
o5
o0
n-0.47
v3
n2
o5
o0
n-0.804
v4
n2
o16
o5
o0
o2
v1
v0
v2
n2
C105
o54
3
o5
o0
n-0.241
v3
n2
o5
o0
n-0.955
v4
n2
o16
o5
o0
o2
v1
v0
v2
n2
C106
o54
3
o5
o0
n-0.503
v3
n2
o5
o0
n-0.097
v4
n2
o16
o5
o0
o2
v1
v0
v2
n2
C107
o54
3
o5
o0
n-0.854
v3
n2
o5
o0
n-0.359
v4
n2
o16
o5
o0
o2
v1
v0
v2
n2
C108
o54
3
o5
o0
n-0.438
v3
n2
o5
o0
n-0.477
v4
n2
o16
o5
o0
o2
v1
v0
v2
n2
C109
o54
3
o5
o0
n-0.294
v3
n2
o5
o0
n-0.887
v4
n2
o16
o5
o0
o2
v1
v0
v2
n2
C110
o54
3
o5
o0
n-0.479
v3
n2
o5
o0
n-0.372
v4
n2
o16
o5
o0
o2
v1
v0
v2
n2
C111
o54
3
o5
o0
n-0.413
v3
n2
o5
o0
n-0.911
v4
n2
o16
o5
o0
o2
v1
v0
v2
n2
C112
o54
3
o5
o0
n-0.722
v3
n2
o5
o0
n-0.082
v4
n2
o16
o5
o0
o2
v1
v0
v2
n2
C113
o54
3
o5
o0
n-0.358
v3
n2
o5
o0
n-0.788
v4
n2
o16
o5
o0
o2
v1
v0
v2
n2
C114
o54
3
o5
o0
n-0.836
v3
n2
o5
o0
n-0.225
v4
n2
o16
o5
o0
o2
v1
v0
v2
n2
C115
o54
3
o5
o0
n-0.648
v3
n2
o5
o0
n-0.424
v4
n2
o16
o5
o0
o2
v1
v0
v2
n2
C116
o54
3
o5
o0
n-0.267
v3
n2
o5
o0
n-0.932
v4
n2
o16
o5
o0
o2
v1
v0
v2
n2
C117
o54
3
o5
o0
n-0.362
v3
n2
o5
o0
n-0.697
v4
n2
o16
o5
o0
o2
v1
v0
v2
n2
C118
o54
3
o5
o0
n-0.232
v3
n2
o5
o0
n-0.969
v4
n2
o16
o5
o0
o2
v1
v0
v2
n2
C119
o54
3
o5
o0
n-0.667
v3
n2
o5
o0
n-0.527
v4
n2
o16
o5
o0
o2
v1
v0
v2
n2
C120
o54
3
o5
o0
n-0.476
v3
n2
o5
o0
n-0.735
v4
n2
o16
o5
o0
o2
v1
v0
v2
n2
C121
o54
3
o5
o0
n-0.868
v3
n2
o5
o0
n-0.141
v4
n2
o16
o5
o0
o2
v1
v0
v2
n2
C122
o54
3
o5
o0
n-0.603
v3
n2
o5
o0
n-0.55
v4
n2
o16
o5
o0
o2
v1
v0
v2
n2
C123
o54
3
o5
o0
n-0.788
v3
n2
o5
o0
n-0.399
v4
n2
o16
o5
o0
o2
v1
v0
v2
n2
C124
o54
3
o5
o0
n-0.745
v3
n2
o5
o0
n-0.365
v4
n2
o16
o5
o0
o2
v1
v0
v2
n2
C125
o54
3
o5
o0
n-0.627
v3
n2
o5
o0
n-0.762
v4
n2
o16
o5
o0
o2
v1
v0
v2
n2
C126
o54
3
o5
o0
n-0.394
v3
n2
o5
o0
n-0.779
v4
n2
o16
o5
o0
o2
v1
v0
v2
n2
C127
o54
3
o5
o0
n-0.22
v3
n2
o5
o0
n-0.869
v4
n2
o16
o5
o0
o2
v1
v0
v2
n2
C128
o54
3
o5
o0
n-0.548
v3
n2
o5
o0
n-0.625
v4
n2
o16
o5
o0
o2
v1
v0
v2
n2
C129
o54
3
o5
o0
n-0.446
v3
n2
o5
o0
n-0.778
v4
n2
o16
o5
o0
o2
v1
v0
v2
n2
C130
o54
3
o5
o0
n-0.463
v3
n2
o5
o0
n-0.762
v4
n2
o16
o5
o0
o2
v1
v0
v2
n2
C131
o54
3
o5
o0
n-0.541
v3
n2
o5
o0
n-0.068
v4
n2
o16
o5
o0
o2
v1
v0
v2
n2
C132
o54
3
o5
o0
n-0.631
v3
n2
o5
o0
n-0.67
v4
n2
o16
o5
o0
o2
v1
v0
v2
n2
C133
o54
3
o5
o0
n-0.735
v3
n2
o5
o0
n-0.151
v4
n2
o16
o5
o0
o2
v1
v0
v2
n2
C134
o54
3
o5
o0
n-0.674
v3
n2
o5
o0
n-0.49
v4
n2
o16
o5
o0
o2
v1
v0
v2
n2
C135
o54
3
o5
o0
n-0.62
v3
n2
o5
o0
n-0.565
v4
n2
o16
o5
o0
o2
v1
v0
v2
n2
C136
o54
3
o5
o0
n-0.257
v3
n2
o5
o0
n-0.862
v4
n2
o16
o5
o0
o2
v1
v0
v2
n2
C137
o54
3
o5
o0
n-0.659
v3
n2
o5
o0
n-0.01
v4
n2
o16
o5
o0
o2
v1
v0
v2
n2
C138
o54
3
o5
o0
n-0.475
v3
n2
o5
o0
n-0.585
v4
n2
o16
o5
o0
o2
v1
v0
v2
n2
C139
o54
3
o5
o0
n-0.708
v3
n2
o5
o0
n-0.475
v4
n2
o16
o5
o0
o2
v1
v0
v2
n2
C140
o54
3
o5
o0
n-0.545
v3
n2
o5
o0
n-0.371
v4
n2
o16
o5
o0
o2
v1
v0
v2
n2
C141
o54
3
o5
o0
n-0.586
v3
n2
o5
o0
n-0.085
v4
n2
o16
o5
o0
o2
v1
v0
v2
n2
C142
o54
3
o5
o0
n-0.796
v3
n2
o5
o0
n-0.309
v4
n2
o16
o5
o0
o2
v1
v0
v2
n2
C143
o54
3
o5
o0
n-0.525
v3
n2
o5
o0
n-0.573
v4
n2
o16
o5
o0
o2
v1
v0
v2
n2
C144
o54
3
o5
o0
n-0.498
v3
n2
o5
o0
n-0.53
v4
n2
o16
o5
o0
o2
v1
v0
v2
n2
C145
o54
3
o5
o0
n-0.79
v3
n2
o5
o0
n-0.217
v4
n2
o16
o5
o0
o2
v1
v0
v2
n2
C146
o54
3
o5
o0
n-0.632
v3
n2
o5
o0
n-0.169
v4
n2
o16
o5
o0
o2
v1
v0
v2
n2
C147
o54
3
o5
o0
n-0.699
v3
n2
o5
o0
n-0.024
v4
n2
o16
o5
o0
o2
v1
v0
v2
n2
C148
o54
3
o5
o0
n-0.758
v3
n2
o5
o0
n-0.436
v4
n2
o16
o5
o0
o2
v1
v0
v2
n2
C149
o54
3
o5
o0
n-0.656
v3
n2
o5
o0
n-0.662
v4
n2
o16
o5
o0
o2
v1
v0
v2
n2
C150
o54
3
o5
o0
n-0.652
v3
n2
o5
o0
n-0.251
v4
n2
o16
o5
o0
o2
v1
v0
v2
n2
C151
o54
3
o5
o0
n-0.801
v3
n2
o5
o0
n-0.511
v4
n2
o16
o5
o0
o2
v1
v0
v2
n2
C152
o54
3
o5
o0
n-0.73
v3
n2
o5
o0
n-0.611
v4
n2
o16
o5
o0
o2
v1
v0
v2
n2
C153
o54
3
o5
o0
n-0.689
v3
n2
o5
o0
n-0.277
v4
n2
o16
o5
o0
o2
v1
v0
v2
n2
C154
o54
3
o5
o0
n-0.527
v3
n2
o5
o0
n-0.612
v4
n2
o16
o5
o0
o2
v1
v0
v2
n2
C155
o54
3
o5
o0
n-0.696
v3
n2
o5
o0
n-0.074
v4
n2
o16
o5
o0
o2
v1
v0
v2
n2
C156
o54
3
o5
o0
n-0.911
v3
n2
o5
o0
n-0.052
v4
n2
o16
o5
o0
o2
v1
v0
v2
n2
C157
o54
3
o5
o0
n-0.805
v3
n2
o5
o0
n-0.075
v4
n2
o16
o5
o0
o2
v1
v0
v2
n2
C158
o54
3
o5
o0
n-0.764
v3
n2
o5
o0
n-0.067
v4
n2
o16
o5
o0
o2
v1
v0
v2
n2
C159
o54
3
o5
o0
n-0.331
v3
n2
o5
o0
n-0.759
v4
n2
o16
o5
o0
o2
v1
v0
v2
n2
C160
o54
3
o5
o0
n-0.078
v3
n2
o5
o0
n-0.983
v4
n2
o16
o5
o0
o2
v1
v0
v2
n2
C161
o54
3
o5
o0
n-0.656
v3
n2
o5
o0
n-0.34
v4
n2
o16
o5
o0
o2
v1
v0
v2
n2
C162
o54
3
o5
o0
n-0.48
v3
n2
o5
o0
n-0.232
v4
n2
o16
o5
o0
o2
v1
v0
v2
n2
C163
o54
3
o5
o0
n-0.503
v3
n2
o5
o0
n-0.14
v4
n2
o16
o5
o0
o2
v1
v0
v2
n2
C164
o54
3
o5
o0
n-0.412
v3
n2
o5
o0
n-0.683
v4
n2
o16
o5
o0
o2
v1
v0
v2
n2
C165
o54
3
o5
o0
n-0.338
v3
n2
o5
o0
n-0.624
v4
n2
o16
o5
o0
o2
v1
v0
v2
n2
C166
o54
3
o5
o0
n-0.92
v3
n2
o5
o0
n-0.139
v4
n2
o16
o5
o0
o2
v1
v0
v2
n2
C167
o54
3
o5
o0
n-0.548
v3
n2
o5
o0
n-0.474
v4
n2
o16
o5
o0
o2
v1
v0
v2
n2
C168
o54
3
o5
o0
n-0.826
v3
n2
o5
o0
n-0.443
v4
n2
o16
o5
o0
o2
v1
v0
v2
n2
C169
o54
3
o5
o0
n-0.071
v3
n2
o5
o0
n-0.969
v4
n2
o16
o5
o0
o2
v1
v0
v2
n2
C170
o54
3
o5
o0
n-0.635
v3
n2
o5
o0
n-0.728
v4
n2
o16
o5
o0
o2
v1
v0
v2
n2
C171
o54
3
o5
o0
n-0.591
v3
n2
o5
o0
n-0.57
v4
n2
o16
o5
o0
o2
v1
v0
v2
n2
C172
o54
3
o5
o0
n-0.489
v3
n2
o5
o0
n-0.427
v4
n2
o16
o5
o0
o2
v1
v0
v2
n2
C173
o54
3
o5
o0
n-0.565
v3
n2
o5
o0
n-0.105
v4
n2
o16
o5
o0
o2
v1
v0
v2
n2
C174
o54
3
o5
o0
n-0.791
v3
n2
o5
o0
n-0.554
v4
n2
o16
o5
o0
o2
v1
v0
v2
n2
C175
o54
3
o5
o0
n-0.725
v3
n2
o5
o0
n-0.174
v4
n2
o16
o5
o0
o2
v1
v0
v2
n2
C176
o54
3
o5
o0
n-0.091
v3
n2
o5
o0
n-0.951
v4
n2
o16
o5
o0
o2
v1
v0
v2
n2
C177
o54
3
o5
o0
n-0.401
v3
n2
o5
o0
n-0.79
v4
n2
o16
o5
o0
o2
v1
v0
v2
n2
C178
o54
3
o5
o0
n-0.226
v3
n2
o5
o0
n-0.968
v4
n2
o16
o5
o0
o2
v1
v0
v2
n2
C179
o54
3
o5
o0
n-0.518
v3
n2
o5
o0
n-0.663
v4
n2
o16
o5
o0
o2
v1
v0
v2
n2
C180
o54
3
o5
o0
n-0.651
v3
n2
o5
o0
n-0.166
v4
n2
o16
o5
o0
o2
v1
v0
v2
n2
C181
o54
3
o5
o0
n-0.738
v3
n2
o5
o0
n-0.146
v4
n2
o16
o5
o0
o2
v1
v0
v2
n2
C182
o54
3
o5
o0
n-0.509
v3
n2
o5
o0
n-0.28
v4
n2
o16
o5
o0
o2
v1
v0
v2
n2
C183
o54
3
o5
o0
n-0.833
v3
n2
o5
o0
n-0.176
v4
n2
o16
o5
o0
o2
v1
v0
v2
n2
C184
o54
3
o5
o0
n-0.669
v3
n2
o5
o0
n-0.044
v4
n2
o16
o5
o0
o2
v1
v0
v2
n2
C185
o54
3
o5
o0
n-0.121
v3
n2
o5
o0
n-0.921
v4
n2
o16
o5
o0
o2
v1
v0
v2
n2
C186
o54
3
o5
o0
n-0.809
v3
n2
o5
o0
n-0.458
v4
n2
o16
o5
o0
o2
v1
v0
v2
n2
C187
o54
3
o5
o0
n-0.477
v3
n2
o5
o0
n-0.436
v4
n2
o16
o5
o0
o2
v1
v0
v2
n2
C188
o54
3
o5
o0
n-0.267
v3
n2
o5
o0
n-0.84
v4
n2
o16
o5
o0
o2
v1
v0
v2
n2
C189
o54
3
o5
o0
n-0.412
v3
n2
o5
o0
n-0.63
v4
n2
o16
o5
o0
o2
v1
v0
v2
n2
C190
o54
3
o5
o0
n-0.663
v3
n2
o5
o0
n-0.648
v4
n2
o16
o5
o0
o2
v1
v0
v2
n2
C191
o54
3
o5
o0
n-0.83
v3
n2
o5
o0
n-0.086
v4
n2
o16
o5
o0
o2
v1
v0
v2
n2
C192
o54
3
o5
o0
n-0.324
v3
n2
o5
o0
n-0.862
v4
n2
o16
o5
o0
o2
v1
v0
v2
n2
C193
o54
3
o5
o0
n-0.225
v3
n2
o5
o0
n-0.853
v4
n2
o16
o5
o0
o2
v1
v0
v2
n2
C194
o54
3
o5
o0
n-0.87
v3
n2
o5
o0
n-0.331
v4
n2
o16
o5
o0
o2
v1
v0
v2
n2
C195
o54
3
o5
o0
n-0.343
v3
n2
o5
o0
n-0.629
v4
n2
o16
o5
o0
o2
v1
v0
v2
n2
C196
o54
3
o5
o0
n-0.849
v3
n2
o5
o0
n-0.521
v4
n2
o16
o5
o0
o2
v1
v0
v2
n2
C197
o54
3
o5
o0
n-0.655
v3
n2
o5
o0
n-0.714
v4
n2
o16
o5
o0
o2
v1
v0
v2
n2
C198
o54
3
o5
o0
n-0.558
v3
n2
o5
o0
n-0.005
v4
n2
o16
o5
o0
o2
v1
v0
v2
n2
C199
o54
3
o5
o0
n-0.83
v3
n2
o5
o0
n-0.526
v4
n2
o16
o5
o0
o2
v1
v0
v2
n2
O0 0
o54
3
o2
o5
o0
v0
v2
n2
o53
o16
o3
o0
o1
o5
o2
v1
v0
n2
o5
o0
o2
v1
v0
v2
n2
o5
o0
v0
v2
n2
o2
o2
o2
n2
o0
v0
v2
v1
v0
o16
o2
o5
o0
o2
v1
v0
v2
n2
o53
o3
o1
o0
o5
o2
v1
v0
n2
o5
o0
o2
v1
v0
v2
n2
o5
o0
v0
v2
n2
o2
o2
o2
n2
o0
o2
v1
v0
v2
v1
v0
o2
o2
o2
o0
v0
v2
v1
v0
o41
o53
o16
o3
o0
o1
o5
o2
v1
v0
n2
o5
o0
o2
v1
v0
v2
n2
o5
o0
v0
v2
n2
o2
o2
o2
n2
o0
v0
v2
v1
v0
k5
200
400
600
800
1000
J0 6
0 0
1 0
2 0
3 0
4 0
5 0
J1 6
0 0
1 0
2 0
3 0
4 0
5 0
J2 6
0 0
1 0
2 0
3 0
4 0
5 0
J3 6
0 0
1 0
2 0
3 0
4 0
5 0
J4 6
0 0
1 0
2 0
3 0
4 0
5 0
J5 6
0 0
1 0
2 0
3 0
4 0
5 0
J6 6
0 0
1 0
2 0
3 0
4 0
5 0
J7 6
0 0
1 0
2 0
3 0
4 0
5 0
J8 6
0 0
1 0
2 0
3 0
4 0
5 0
J9 6
0 0
1 0
2 0
3 0
4 0
5 0
J10 6
0 0
1 0
2 0
3 0
4 0
5 0
J11 6
0 0
1 0
2 0
3 0
4 0
5 0
J12 6
0 0
1 0
2 0
3 0
4 0
5 0
J13 6
0 0
1 0
2 0
3 0
4 0
5 0
J14 6
0 0
1 0
2 0
3 0
4 0
5 0
J15 6
0 0
1 0
2 0
3 0
4 0
5 0
J16 6
0 0
1 0
2 0
3 0
4 0
5 0
J17 6
0 0
1 0
2 0
3 0
4 0
5 0
J18 6
0 0
1 0
2 0
3 0
4 0
5 0
J19 6
0 0
1 0
2 0
3 0
4 0
5 0
J20 6
0 0
1 0
2 0
3 0
4 0
5 0
J21 6
0 0
1 0
2 0
3 0
4 0
5 0
J22 6
0 0
1 0
2 0
3 0
4 0
5 0
J23 6
0 0
1 0
2 0
3 0
4 0
5 0
J24 6
0 0
1 0
2 0
3 0
4 0
5 0
J25 6
0 0
1 0
2 0
3 0
4 0
5 0
J26 6
0 0
1 0
2 0
3 0
4 0
5 0
J27 6
0 0
1 0
2 0
3 0
4 0
5 0
J28 6
0 0
1 0
2 0
3 0
4 0
5 0
J29 6
0 0
1 0
2 0
3 0
4 0
5 0
J30 6
0 0
1 0
2 0
3 0
4 0
5 0
J31 6
0 0
1 0
2 0
3 0
4 0
5 0
J32 6
0 0
1 0
2 0
3 0
4 0
5 0
J33 6
0 0
1 0
2 0
3 0
4 0
5 0
J34 6
0 0
1 0
2 0
3 0
4 0
5 0
J35 6
0 0
1 0
2 0
3 0
4 0
5 0
J36 6
0 0
1 0
2 0
3 0
4 0
5 0
J37 6
0 0
1 0
2 0
3 0
4 0
5 0
J38 6
0 0
1 0
2 0
3 0
4 0
5 0
J39 6
0 0
1 0
2 0
3 0
4 0
5 0
J40 6
0 0
1 0
2 0
3 0
4 0
5 0
J41 6
0 0
1 0
2 0
3 0
4 0
5 0
J42 6
0 0
1 0
2 0
3 0
4 0
5 0
J43 6
0 0
1 0
2 0
3 0
4 0
5 0
J44 6
0 0
1 0
2 0
3 0
4 0
5 0
J45 6
0 0
1 0
2 0
3 0
4 0
5 0
J46 6
0 0
1 0
2 0
3 0
4 0
5 0
J47 6
0 0
1 0
2 0
3 0
4 0
5 0
J48 6
0 0
1 0
2 0
3 0
4 0
5 0
J49 6
0 0
1 0
2 0
3 0
4 0
5 0
J50 6
0 0
1 0
2 0
3 0
4 0
5 0
J51 6
0 0
1 0
2 0
3 0
4 0
5 0
J52 6
0 0
1 0
2 0
3 0
4 0
5 0
J53 6
0 0
1 0
2 0
3 0
4 0
5 0
J54 6
0 0
1 0
2 0
3 0
4 0
5 0
J55 6
0 0
1 0
2 0
3 0
4 0
5 0
J56 6
0 0
1 0
2 0
3 0
4 0
5 0
J57 6
0 0
1 0
2 0
3 0
4 0
5 0
J58 6
0 0
1 0
2 0
3 0
4 0
5 0
J59 6
0 0
1 0
2 0
3 0
4 0
5 0
J60 6
0 0
1 0
2 0
3 0
4 0
5 0
J61 6
0 0
1 0
2 0
3 0
4 0
5 0
J62 6
0 0
1 0
2 0
3 0
4 0
5 0
J63 6
0 0
1 0
2 0
3 0
4 0
5 0
J64 6
0 0
1 0
2 0
3 0
4 0
5 0
J65 6
0 0
1 0
2 0
3 0
4 0
5 0
J66 6
0 0
1 0
2 0
3 0
4 0
5 0
J67 6
0 0
1 0
2 0
3 0
4 0
5 0
J68 6
0 0
1 0
2 0
3 0
4 0
5 0
J69 6
0 0
1 0
2 0
3 0
4 0
5 0
J70 6
0 0
1 0
2 0
3 0
4 0
5 0
J71 6
0 0
1 0
2 0
3 0
4 0
5 0
J72 6
0 0
1 0
2 0
3 0
4 0
5 0
J73 6
0 0
1 0
2 0
3 0
4 0
5 0
J74 6
0 0
1 0
2 0
3 0
4 0
5 0
J75 6
0 0
1 0
2 0
3 0
4 0
5 0
J76 6
0 0
1 0
2 0
3 0
4 0
5 0
J77 6
0 0
1 0
2 0
3 0
4 0
5 0
J78 6
0 0
1 0
2 0
3 0
4 0
5 0
J79 6
0 0
1 0
2 0
3 0
4 0
5 0
J80 6
0 0
1 0
2 0
3 0
4 0
5 0
J81 6
0 0
1 0
2 0
3 0
4 0
5 0
J82 6
0 0
1 0
2 0
3 0
4 0
5 0
J83 6
0 0
1 0
2 0
3 0
4 0
5 0
J84 6
0 0
1 0
2 0
3 0
4 0
5 0
J85 6
0 0
1 0
2 0
3 0
4 0
5 0
J86 6
0 0
1 0
2 0
3 0
4 0
5 0
J87 6
0 0
1 0
2 0
3 0
4 0
5 0
J88 6
0 0
1 0
2 0
3 0
4 0
5 0
J89 6
0 0
1 0
2 0
3 0
4 0
5 0
J90 6
0 0
1 0
2 0
3 0
4 0
5 0
J91 6
0 0
1 0
2 0
3 0
4 0
5 0
J92 6
0 0
1 0
2 0
3 0
4 0
5 0
J93 6
0 0
1 0
2 0
3 0
4 0
5 0
J94 6
0 0
1 0
2 0
3 0
4 0
5 0
J95 6
0 0
1 0
2 0
3 0
4 0
5 0
J96 6
0 0
1 0
2 0
3 0
4 0
5 0
J97 6
0 0
1 0
2 0
3 0
4 0
5 0
J98 6
0 0
1 0
2 0
3 0
4 0
5 0
J99 6
0 0
1 0
2 0
3 0
4 0
5 0
J100 5
0 0
1 0
2 0
3 0
4 0
J101 5
0 0
1 0
2 0
3 0
4 0
J102 5
0 0
1 0
2 0
3 0
4 0
J103 5
0 0
1 0
2 0
3 0
4 0
J104 5
0 0
1 0
2 0
3 0
4 0
J105 5
0 0
1 0
2 0
3 0
4 0
J106 5
0 0
1 0
2 0
3 0
4 0
J107 5
0 0
1 0
2 0
3 0
4 0
J108 5
0 0
1 0
2 0
3 0
4 0
J109 5
0 0
1 0
2 0
3 0
4 0
J110 5
0 0
1 0
2 0
3 0
4 0
J111 5
0 0
1 0
2 0
3 0
4 0
J112 5
0 0
1 0
2 0
3 0
4 0
J113 5
0 0
1 0
2 0
3 0
4 0
J114 5
0 0
1 0
2 0
3 0
4 0
J115 5
0 0
1 0
2 0
3 0
4 0
J116 5
0 0
1 0
2 0
3 0
4 0
J117 5
0 0
1 0
2 0
3 0
4 0
J118 5
0 0
1 0
2 0
3 0
4 0
J119 5
0 0
1 0
2 0
3 0
4 0
J120 5
0 0
1 0
2 0
3 0
4 0
J121 5
0 0
1 0
2 0
3 0
4 0
J122 5
0 0
1 0
2 0
3 0
4 0
J123 5
0 0
1 0
2 0
3 0
4 0
J124 5
0 0
1 0
2 0
3 0
4 0
J125 5
0 0
1 0
2 0
3 0
4 0
J126 5
0 0
1 0
2 0
3 0
4 0
J127 5
0 0
1 0
2 0
3 0
4 0
J128 5
0 0
1 0
2 0
3 0
4 0
J129 5
0 0
1 0
2 0
3 0
4 0
J130 5
0 0
1 0
2 0
3 0
4 0
J131 5
0 0
1 0
2 0
3 0
4 0
J132 5
0 0
1 0
2 0
3 0
4 0
J133 5
0 0
1 0
2 0
3 0
4 0
J134 5
0 0
1 0
2 0
3 0
4 0
J135 5
0 0
1 0
2 0
3 0
4 0
J136 5
0 0
1 0
2 0
3 0
4 0
J137 5
0 0
1 0
2 0
3 0
4 0
J138 5
0 0
1 0
2 0
3 0
4 0
J139 5
0 0
1 0
2 0
3 0
4 0
J140 5
0 0
1 0
2 0
3 0
4 0
J141 5
0 0
1 0
2 0
3 0
4 0
J142 5
0 0
1 0
2 0
3 0
4 0
J143 5
0 0
1 0
2 0
3 0
4 0
J144 5
0 0
1 0
2 0
3 0
4 0
J145 5
0 0
1 0
2 0
3 0
4 0
J146 5
0 0
1 0
2 0
3 0
4 0
J147 5
0 0
1 0
2 0
3 0
4 0
J148 5
0 0
1 0
2 0
3 0
4 0
J149 5
0 0
1 0
2 0
3 0
4 0
J150 5
0 0
1 0
2 0
3 0
4 0
J151 5
0 0
1 0
2 0
3 0
4 0
J152 5
0 0
1 0
2 0
3 0
4 0
J153 5
0 0
1 0
2 0
3 0
4 0
J154 5
0 0
1 0
2 0
3 0
4 0
J155 5
0 0
1 0
2 0
3 0
4 0
J156 5
0 0
1 0
2 0
3 0
4 0
J157 5
0 0
1 0
2 0
3 0
4 0
J158 5
0 0
1 0
2 0
3 0
4 0
J159 5
0 0
1 0
2 0
3 0
4 0
J160 5
0 0
1 0
2 0
3 0
4 0
J161 5
0 0
1 0
2 0
3 0
4 0
J162 5
0 0
1 0
2 0
3 0
4 0
J163 5
0 0
1 0
2 0
3 0
4 0
J164 5
0 0
1 0
2 0
3 0
4 0
J165 5
0 0
1 0
2 0
3 0
4 0
J166 5
0 0
1 0
2 0
3 0
4 0
J167 5
0 0
1 0
2 0
3 0
4 0
J168 5
0 0
1 0
2 0
3 0
4 0
J169 5
0 0
1 0
2 0
3 0
4 0
J170 5
0 0
1 0
2 0
3 0
4 0
J171 5
0 0
1 0
2 0
3 0
4 0
J172 5
0 0
1 0
2 0
3 0
4 0
J173 5
0 0
1 0
2 0
3 0
4 0
J174 5
0 0
1 0
2 0
3 0
4 0
J175 5
0 0
1 0
2 0
3 0
4 0
J176 5
0 0
1 0
2 0
3 0
4 0
J177 5
0 0
1 0
2 0
3 0
4 0
J178 5
0 0
1 0
2 0
3 0
4 0
J179 5
0 0
1 0
2 0
3 0
4 0
J180 5
0 0
1 0
2 0
3 0
4 0
J181 5
0 0
1 0
2 0
3 0
4 0
J182 5
0 0
1 0
2 0
3 0
4 0
J183 5
0 0
1 0
2 0
3 0
4 0
J184 5
0 0
1 0
2 0
3 0
4 0
J185 5
0 0
1 0
2 0
3 0
4 0
J186 5
0 0
1 0
2 0
3 0
4 0
J187 5
0 0
1 0
2 0
3 0
4 0
J188 5
0 0
1 0
2 0
3 0
4 0
J189 5
0 0
1 0
2 0
3 0
4 0
J190 5
0 0
1 0
2 0
3 0
4 0
J191 5
0 0
1 0
2 0
3 0
4 0
J192 5
0 0
1 0
2 0
3 0
4 0
J193 5
0 0
1 0
2 0
3 0
4 0
J194 5
0 0
1 0
2 0
3 0
4 0
J195 5
0 0
1 0
2 0
3 0
4 0
J196 5
0 0
1 0
2 0
3 0
4 0
J197 5
0 0
1 0
2 0
3 0
4 0
J198 5
0 0
1 0
2 0
3 0
4 0
J199 5
0 0
1 0
2 0
3 0
4 0
G0 3
0 0
1 0
2 0
